RT is False
Default write of storage_offers_DA.csv just to have a file (but constraint should be inactive)
Reading model...
...model read.
creating competitive generators file...
...competitive generators recorded.
Loading data...
.. day-ahead data read.
Compiling instance...
...instance created.
Creating Offer Mitigation (model will solve as dispatch if TRUE)...
NOTE: storage offers will not be mitigated
...storage offer mitigation file created
Converting model to MPEC...
...converted
NOTE: initial MIP solve with only storage competitive to get feasible solution
Solving...

Welcome to IBM(R) ILOG(R) CPLEX(R) Interactive Optimizer 12.9.0.0
  with Simplex, Mixed Integer & Barrier Optimizers
5725-A06 5725-A29 5724-Y48 5724-Y49 5724-Y54 5724-Y55 5655-Y21
Copyright IBM Corp. 1988, 2019.  All Rights Reserved.

Type 'help' for a list of available commands.
Type 'help' followed by a command name for more
information on commands.

CPLEX> Logfile 'cplex.log' closed.
Logfile 'C:\Users\Luke\Desktop\competitiveMPEC_12.6\logs\tmpsxi6w8o3.cplex.log' open.
CPLEX> New value for parallel optimization mode: -1
CPLEX> New value for mixed integer optimality gap tolerance: 0.01
CPLEX> New value for integrality tolerance: 1e-09
CPLEX> New value for feasibility tolerance: 0.01
CPLEX> New value for deterministic time limit in ticks: 175000
CPLEX> Problem 'C:\Users\Luke\Desktop\competitiveMPEC_12.6\logs\tmp6i576cnn.pyomo.lp' read.
Read time = 0.17 sec. (13.79 ticks)
CPLEX> Problem name         : C:\Users\Luke\Desktop\competitiveMPEC_12.6\logs\tmp6i576cnn.pyomo.lp
Objective sense      : Maximize
Variables            :   53321  [Nneg: 1,  Box: 21806,  Free: 4416,
                                 Binary: 27098]
Objective nonzeros   :    8964
Linear constraints   :  122188  [Less: 41007,  Greater: 58612,  Equal: 22569]
  Nonzeros           :  288561
  RHS nonzeros       :   66990

Variables            : Min LB: -5000.000        Max UB: 1000000.       
Objective nonzeros   : Min   : 0.1000000        Max   : 722.0000       
Linear constraints   :
  Nonzeros           : Min   : 0.1000000        Max   : 1000000.       
  RHS nonzeros       : Min   : 0.1000000        Max   : 1000000.       
CPLEX> CPXPARAM_Parallel                                -1
CPXPARAM_Simplex_Tolerances_Feasibility          0.01
CPXPARAM_DetTimeLimit                            175000
CPXPARAM_MIP_Tolerances_MIPGap                   0.01
CPXPARAM_MIP_Tolerances_Integrality              1.0000000000000001e-09
Tried aggregator 3 times.
MIP Presolve eliminated 88196 rows and 19016 columns.
MIP Presolve added 3365 rows and 0 columns.
MIP Presolve modified 24519 coefficients.
Aggregator did 12907 substitutions.
Reduced MIP has 24450 rows, 20830 columns, and 68535 nonzeros.
Reduced MIP has 8244 binaries, 0 generals, 0 SOSs, and 0 indicators.
Presolve time = 0.25 sec. (171.97 ticks)
Probing fixed 447 vars, tightened 2886 bounds.
Probing time = 1.42 sec. (909.44 ticks)
Tried aggregator 2 times.
MIP Presolve eliminated 998 rows and 894 columns.
MIP Presolve modified 2172 coefficients.
Aggregator did 42 substitutions.
Reduced MIP has 23410 rows, 19894 columns, and 65519 nonzeros.
Reduced MIP has 7797 binaries, 0 generals, 0 SOSs, and 0 indicators.
Presolve time = 0.11 sec. (67.97 ticks)
Probing time = 0.03 sec. (15.35 ticks)
Clique table members: 6343.
MIP emphasis: balance optimality and feasibility.
MIP search method: dynamic search.
Parallel mode: opportunistic, using up to 24 threads.
Root relaxation solution time = 0.39 sec. (321.48 ticks)

        Nodes                                         Cuts/
   Node  Left     Objective  IInf  Best Integer    Best Bound    ItCnt     Gap

      0     0    42668.0154  1723                  42668.0154     6866         
      0     0    41754.3684   627                   Cuts: 716     7210         
      0     0    41394.7850   509                   Cuts: 432     7375         
      0     0    41391.3487   479                   Cuts: 208     7447         
      0     0    41385.7345   455                    Cuts: 90     7479         
      0     0    41385.7345   447                    Cuts: 71     7492         
      0     0    41385.7345   438                    Cuts: 55     7502         
      0     0    41385.7345   431                    Cuts: 54     7511         
      0     0    41385.7345   417                    Cuts: 52     7538         
      0     0    41385.7345   410                    Cuts: 64     7546         
      0     0    41385.7345   408                    Cuts: 44     7548         
      0    20    38084.8980   392                     Cuts: 4     7619         
Elapsed time = 9.53 sec. (6370.05 ticks, tree = 0.02 MB, solutions = 0)
    350    41    20223.7032   388                  40599.2579     7807         
    824   432    infeasible                        40590.8057    10253         
   1236  1013    36895.2279   357                  40590.8057    15279         
   1836  1061    38698.9898   336                  40590.8057    15448         
   2600  1855    37103.6553   329                  40590.8057    17336         
   3321  2181    36850.7591   331                  40590.8057    17514         
   4152  2975    36846.4903   310                  40590.8057    17722         
   4845  3859    36868.4539   300                  40590.8057    18256         
   5705  4635    38717.7185   288                  40590.8057    19312         
*  7512  6092      integral     0    36887.1132    40590.8057    19810   10.04%
   9249  2929    38696.7326   231    38681.4248    40590.8057    20813    4.94%
Elapsed time = 18.08 sec. (9472.91 ticks, tree = 21.29 MB, solutions = 7)
  10280  2064        cutoff          38681.4248    39637.3438    29064    2.47%
* 10807   157      integral     0    38896.8211    39209.7721    30016    0.80%

GUB cover cuts applied:  2
Clique cuts applied:  23
Cover cuts applied:  6
Implied bound cuts applied:  72
Flow cuts applied:  274
Mixed integer rounding cuts applied:  52
Gomory fractional cuts applied:  45

Root node processing (before b&c):
  Real time             =    9.03 sec. (6344.75 ticks)
Parallel b&c, 24 threads:
  Real time             =   22.78 sec. (10138.21 ticks)
  Sync time (average)   =    2.00 sec.
  Wait time (average)   =    0.06 sec.
                          ------------
Total (root+branch&cut) =   31.81 sec. (16482.96 ticks)

Solution pool: 8 solutions saved.

MIP - Integer optimal, tolerance (0.01/1e-06):  Objective =  3.8896821107e+04
Current MIP best bound =  3.9170792235e+04 (gap = 273.971, 0.70%)
Solution time =   31.83 sec.  Iterations = 33966  Nodes = 11588 (654)
Deterministic time = 16483.11 ticks  (517.88 ticks/sec)

CPLEX> Incumbent solution written to file 'C:\Users\Luke\Desktop\competitiveMPEC_12.6\logs\tmpu8xdcj3a.cplex.sol'.
CPLEX> NOTE: no warmstart specified for MIP iteration, default behavior is true
NOTE: resolving with all competitive generators using storage-only solution to warmstart
Solving...

Welcome to IBM(R) ILOG(R) CPLEX(R) Interactive Optimizer 12.9.0.0
  with Simplex, Mixed Integer & Barrier Optimizers
5725-A06 5725-A29 5724-Y48 5724-Y49 5724-Y54 5724-Y55 5655-Y21
Copyright IBM Corp. 1988, 2019.  All Rights Reserved.

Type 'help' for a list of available commands.
Type 'help' followed by a command name for more
information on commands.

CPLEX> Logfile 'cplex.log' closed.
Logfile 'C:\Users\Luke\Desktop\competitiveMPEC_12.6\logs\tmpaivwvikk.cplex.log' open.
CPLEX> New value for parallel optimization mode: -1
CPLEX> New value for mixed integer optimality gap tolerance: 0.01
CPLEX> New value for integrality tolerance: 1e-09
CPLEX> New value for feasibility tolerance: 0.01
CPLEX> New value for deterministic time limit in ticks: 175000
CPLEX> Problem 'C:\Users\Luke\Desktop\competitiveMPEC_12.6\logs\tmpwpsj6n_c.pyomo.lp' read.
Read time = 0.19 sec. (13.81 ticks)
CPLEX> MIP start file 'C:\Users\Luke\Desktop\competitiveMPEC_12.6\logs\tmp6n_7ml49.cplex.mst' read.
CPLEX> Problem name         : C:\Users\Luke\Desktop\competitiveMPEC_12.6\logs\tmpwpsj6n_c.pyomo.lp
Objective sense      : Maximize
Variables            :   54041  [Nneg: 1,  Box: 22526,  Free: 4416,
                                 Binary: 27098]
Objective nonzeros   :    9660
Linear constraints   :  122188  [Less: 41007,  Greater: 58612,  Equal: 22569]
  Nonzeros           :  288561
  RHS nonzeros       :   66990

Variables            : Min LB: -5000.000        Max UB: 1000000.       
Objective nonzeros   : Min   : 0.1000000        Max   : 722.0000       
Linear constraints   :
  Nonzeros           : Min   : 0.1000000        Max   : 1000000.       
  RHS nonzeros       : Min   : 0.1000000        Max   : 1000000.       
CPLEX> CPXPARAM_Parallel                                -1
CPXPARAM_Simplex_Tolerances_Feasibility          0.01
CPXPARAM_DetTimeLimit                            175000
CPXPARAM_MIP_Tolerances_MIPGap                   0.01
CPXPARAM_MIP_Tolerances_Integrality              1.0000000000000001e-09
Warning:  No solution found from 1 MIP starts.
Retaining values of one MIP start for possible repair.
Tried aggregator 3 times.
MIP Presolve eliminated 88196 rows and 19736 columns.
MIP Presolve added 3365 rows and 0 columns.
MIP Presolve modified 24519 coefficients.
Aggregator did 12907 substitutions.
Reduced MIP has 24450 rows, 20830 columns, and 68535 nonzeros.
Reduced MIP has 8244 binaries, 0 generals, 0 SOSs, and 0 indicators.
Presolve time = 0.24 sec. (172.33 ticks)
Probing fixed 447 vars, tightened 2886 bounds.
Probing time = 1.44 sec. (909.44 ticks)
Tried aggregator 2 times.
MIP Presolve eliminated 998 rows and 894 columns.
MIP Presolve modified 2172 coefficients.
Aggregator did 42 substitutions.
Reduced MIP has 23410 rows, 19894 columns, and 65519 nonzeros.
Reduced MIP has 7797 binaries, 0 generals, 0 SOSs, and 0 indicators.
Presolve time = 0.09 sec. (67.97 ticks)
Probing time = 0.03 sec. (15.35 ticks)
Clique table members: 6343.
MIP emphasis: balance optimality and feasibility.
MIP search method: dynamic search.
Parallel mode: opportunistic, using up to 24 threads.
Root relaxation solution time = 0.39 sec. (309.00 ticks)

        Nodes                                         Cuts/
   Node  Left     Objective  IInf  Best Integer    Best Bound    ItCnt     Gap

      0     0    42666.6111  1682                  42666.6111     6822         
      0     0    41844.3424   644                   Cuts: 770     7216         
      0     0    41593.9713   506                   Cuts: 401     7427         
      0     0    41593.8301   441                   Cuts: 202     7549         
      0     0    41584.9210   425                    Cuts: 79     7615         
      0     0    41584.9210   416                    Cuts: 65     7661         
      0     0    41584.9210   397                    Cuts: 57     7685         
      0     0    41584.9210   387                    Cuts: 30     7693         
      0     0    41584.9210   379                    Cuts: 25     7702         
      0     0    41584.9210   375                    Cuts: 19     7706         
      0     0    41584.9210   373                    Cuts: 18     7708         
Repair heuristic found nothing.
      0     2    41584.9210   373                  41568.1976     7708         
Elapsed time = 9.27 sec. (5725.33 ticks, tree = 0.02 MB, solutions = 0)
    567   117    36559.9163   299                  40237.1785     8224         
    969   815    36892.8695   292                  40237.1785    14629         
   1971   886    36890.6123   290                  40237.1785    15261         
   2663  2293    27431.7266   293                  40237.1785    16637         
   3267  2713    36886.3435   265                  40237.1785    17649         
   4077  3123    36890.6123   259                  40237.1785    17902         
   5194  4714    30728.8442   287                  40237.1785    18185         
   6084  4928    38771.0123   251                  40237.1785    18203         
*  6977+ 3264                        36167.9232    40237.1785            11.25%
*  7479  6120      integral     0    38768.7551    40237.1785    19236    3.79%
Elapsed time = 15.38 sec. (8058.27 ticks, tree = 48.28 MB, solutions = 10)
   7706   714        cutoff          38768.7551    39779.9566    27978    2.61%
   8072    79    39118.9216    43    38768.7551    39181.0132    28545    1.06%

GUB cover cuts applied:  1
Clique cuts applied:  39
Cover cuts applied:  10
Implied bound cuts applied:  135
Flow cuts applied:  559
Mixed integer rounding cuts applied:  208
Flow path cuts applied:  1
Gomory fractional cuts applied:  84

Root node processing (before b&c):
  Real time             =    8.77 sec. (5676.79 ticks)
Parallel b&c, 24 threads:
  Real time             =   21.72 sec. (10172.01 ticks)
  Sync time (average)   =    4.09 sec.
  Wait time (average)   =    0.07 sec.
                          ------------
Total (root+branch&cut) =   30.48 sec. (15848.80 ticks)

Solution pool: 10 solutions saved.

MIP - Integer optimal, tolerance (0.01/1e-06):  Objective =  3.8768755104e+04
Current MIP best bound =  3.9154827093e+04 (gap = 386.072, 1.00%)
Solution time =   30.48 sec.  Iterations = 30416  Nodes = 8231 (396)
Deterministic time = 15848.95 ticks  (519.91 ticks/sec)

CPLEX> Incumbent solution written to file 'C:\Users\Luke\Desktop\competitiveMPEC_12.6\logs\tmpdimkcdqm.cplex.sol'.
CPLEX> Exporting results... 
